
Gurobi 9.5.2 (mac64[arm]) logging started Wed Apr 19 18:55:34 2023

Set parameter LogFile to value "Java/output/iterative_model/scenario_seed_1_nJob_30_machineCount_1/mip_increment_2/log.txt"
Gurobi Optimizer version 9.5.2 build v9.5.2rc0 (mac64[arm])
Thread count: 8 physical cores, 8 logical processors, using up to 8 threads
Optimize a model with 744 rows, 3364 columns and 21330 nonzeros
Model fingerprint: 0x74331a7c
Variable types: 0 continuous, 3364 integer (3364 binary)
Coefficient statistics:
  Matrix range     [1e+00, 2e+02]
  Objective range  [6e+01, 5e+06]
  Bounds range     [1e+00, 1e+00]
  RHS range        [1e+00, 1e+00]
Found heuristic solution: objective 1.545307e+07
Presolve removed 44 rows and 296 columns
Presolve time: 0.03s
Presolved: 700 rows, 3068 columns, 18937 nonzeros
Variable types: 0 continuous, 3068 integer (3064 binary)
Found heuristic solution: objective 1.528366e+07

Root relaxation: objective 5.451577e+03, 577 iterations, 0.01 seconds (0.02 work units)

    Nodes    |    Current Node    |     Objective Bounds      |     Work
 Expl Unexpl |  Obj  Depth IntInf | Incumbent    BestBd   Gap | It/Node Time

     0     0 5451.57702    0   73 1.5284e+07 5451.57702   100%     -    0s
H    0     0                    2477808.0000 5451.57702   100%     -    0s
H    0     0                    2419440.0000 5451.57702   100%     -    0s
H    0     0                    2345232.0000 5451.57702   100%     -    0s
H    0     0                    279024.00000 5559.61735  98.0%     -    0s
     0     0 5559.61735    0  103 279024.000 5559.61735  98.0%     -    0s
H    0     0                    227568.00000 5559.61735  97.6%     -    0s
H    0     0                    7280.0000000 5559.61735  23.6%     -    0s
H    0     0                    6672.0000000 5559.61735  16.7%     -    0s
     0     0 5569.42459    0   99 6672.00000 5569.42459  16.5%     -    0s
     0     0 5578.74469    0  103 6672.00000 5578.74469  16.4%     -    0s
     0     0 5580.86804    0  106 6672.00000 5580.86804  16.4%     -    0s
H    0     0                    6544.0000000 5580.86804  14.7%     -    0s
     0     0 5595.86946    0  116 6544.00000 5595.86946  14.5%     -    0s
     0     0 5595.86946    0   70 6544.00000 5595.86946  14.5%     -    0s
H    0     0                    6416.0000000 5595.86946  12.8%     -    0s
     0     0 5595.86946    0  114 6416.00000 5595.86946  12.8%     -    0s
     0     0 5595.86946    0  126 6416.00000 5595.86946  12.8%     -    0s
     0     0 5602.66722    0  111 6416.00000 5602.66722  12.7%     -    0s
     0     0 5602.66722    0  114 6416.00000 5602.66722  12.7%     -    0s
     0     0 5616.05895    0  142 6416.00000 5616.05895  12.5%     -    0s
H    0     0                    6352.0000000 5616.05895  11.6%     -    0s
     0     0 5618.54605    0  146 6352.00000 5618.54605  11.5%     -    0s
     0     0 5642.90888    0  159 6352.00000 5642.90888  11.2%     -    0s
     0     0 5645.89340    0  161 6352.00000 5645.89340  11.1%     -    0s
     0     0 5647.28649    0  170 6352.00000 5647.28649  11.1%     -    0s
     0     0 5647.78582    0  168 6352.00000 5647.78582  11.1%     -    0s
     0     0 5647.78582    0  169 6352.00000 5647.78582  11.1%     -    0s
     0     0 5659.54169    0  184 6352.00000 5659.54169  10.9%     -    0s
     0     0 5660.72125    0  179 6352.00000 5660.72125  10.9%     -    0s
     0     0 5660.88605    0  183 6352.00000 5660.88605  10.9%     -    0s
     0     0 5690.83007    0  184 6352.00000 5690.83007  10.4%     -    0s
     0     0 5691.13593    0  181 6352.00000 5691.13593  10.4%     -    0s
     0     0 5691.17668    0  184 6352.00000 5691.17668  10.4%     -    0s
H    0     0                    6224.0000000 5691.17668  8.56%     -    0s
     0     0 5706.82676    0  190 6224.00000 5706.82676  8.31%     -    0s
H    0     0                    6064.0000000 5706.82676  5.89%     -    0s
H    0     0                    5936.0000000 5706.82676  3.86%     -    0s
H    0     0                    5904.0000000 5706.82676  3.34%     -    0s
     0     0 5710.49038    0  195 5904.00000 5710.49038  3.28%     -    0s
     0     0 5710.74672    0  198 5904.00000 5710.74672  3.27%     -    0s
     0     0 5710.85565    0  196 5904.00000 5710.85565  3.27%     -    0s
     0     0 5717.97167    0  184 5904.00000 5717.97167  3.15%     -    0s
H    0     0                    5840.0000000 5717.97167  2.09%     -    0s
     0     0 5718.71084    0  191 5840.00000 5718.71084  2.08%     -    0s
     0     0 5719.14947    0  189 5840.00000 5719.14947  2.07%     -    0s
     0     0 5719.20553    0  191 5840.00000 5719.20553  2.07%     -    0s
     0     0 5724.15264    0  200 5840.00000 5724.15264  1.98%     -    0s
     0     0 5724.52519    0  197 5840.00000 5724.52519  1.98%     -    0s
     0     0 5724.53804    0  197 5840.00000 5724.53804  1.98%     -    0s
     0     0 5727.59978    0  202 5840.00000 5727.59978  1.92%     -    0s
     0     0 5728.41499    0  208 5840.00000 5728.41499  1.91%     -    0s
     0     0 5728.78569    0  204 5840.00000 5728.78569  1.90%     -    0s
     0     0 5728.87893    0  199 5840.00000 5728.87893  1.90%     -    0s
     0     0 5729.40163    0  207 5840.00000 5729.40163  1.89%     -    0s
     0     0 5729.40163    0  203 5840.00000 5729.40163  1.89%     -    0s
     0     0 5729.67732    0   73 5840.00000 5729.67732  1.89%     -    0s
     0     0 5729.67732    0  147 5840.00000 5729.67732  1.89%     -    0s
     0     0 5729.67732    0  153 5840.00000 5729.67732  1.89%     -    0s
     0     0 5729.67732    0  167 5840.00000 5729.67732  1.89%     -    0s
     0     0 5729.67732    0  185 5840.00000 5729.67732  1.89%     -    0s
     0     0 5729.67732    0  179 5840.00000 5729.67732  1.89%     -    0s
     0     0 5729.75636    0  188 5840.00000 5729.75636  1.89%     -    0s
     0     0 5730.27709    0  190 5840.00000 5730.27709  1.88%     -    0s
     0     0 5730.30406    0  191 5840.00000 5730.30406  1.88%     -    0s
     0     0 5731.73726    0  198 5840.00000 5731.73726  1.85%     -    0s
     0     0 5731.75698    0  199 5840.00000 5731.75698  1.85%     -    0s
     0     0 5732.44094    0  200 5840.00000 5732.44094  1.84%     -    0s
     0     0 5732.44094    0  200 5840.00000 5732.44094  1.84%     -    0s
     0     2 5732.87288    0  198 5840.00000 5732.87288  1.83%     -    0s

Cutting planes:
  Gomory: 2
  Clique: 36
  MIR: 57
  StrongCG: 10
  GUB cover: 44
  Zero half: 13
  RLT: 2

Explored 57 nodes (14252 simplex iterations) in 0.82 seconds (1.04 work units)
Thread count was 8 (of 8 available processors)

Solution count 10: 5840 5904 5936 ... 7280

Optimal solution found (tolerance 1.00e-04)
Best objective 5.840000000000e+03, best bound 5.840000000000e+03, gap 0.0000%

Gurobi 9.5.2 (mac64[arm]) logging started Wed Apr 19 18:55:34 2023

Set parameter LogFile to value "Java/output/iterative_model/scenario_seed_1_nJob_30_machineCount_1/mip_increment_2/log.txt"
Gurobi Optimizer version 9.5.2 build v9.5.2rc0 (mac64[arm])
Thread count: 8 physical cores, 8 logical processors, using up to 8 threads
Optimize a model with 748 rows, 2805 columns and 19665 nonzeros
Model fingerprint: 0xefd22e50
Variable types: 0 continuous, 2805 integer (2805 binary)
Coefficient statistics:
  Matrix range     [1e+00, 2e+02]
  Objective range  [2e+02, 9e+05]
  Bounds range     [1e+00, 1e+00]
  RHS range        [1e+00, 1e+00]
Presolve removed 211 rows and 352 columns
Presolve time: 0.03s
Presolved: 537 rows, 2453 columns, 16455 nonzeros
Variable types: 0 continuous, 2453 integer (2447 binary)

Root relaxation: objective 3.878133e+03, 1008 iterations, 0.02 seconds (0.02 work units)

    Nodes    |    Current Node    |     Objective Bounds      |     Work
 Expl Unexpl |  Obj  Depth IntInf | Incumbent    BestBd   Gap | It/Node Time

     0     0 3878.13333    0   50          - 3878.13333      -     -    0s
H    0     0                    485764.00000 3878.13333  99.2%     -    0s
H    0     0                    260900.00000 3878.13333  98.5%     -    0s
H    0     0                    219620.00000 3886.27027  98.2%     -    0s
     0     0 3886.27027    0  105 219620.000 3886.27027  98.2%     -    0s
H    0     0                    198316.00000 3886.27027  98.0%     -    0s
     0     0 3886.27027    0  106 198316.000 3886.27027  98.0%     -    0s
H    0     0                    25116.000000 3894.66228  84.5%     -    0s
     0     0 3894.66228    0   94 25116.0000 3894.66228  84.5%     -    0s
H    0     0                    25108.000000 3894.66228  84.5%     -    0s
H    0     0                    25076.000000 3894.66228  84.5%     -    0s
H    0     0                    25028.000000 3896.75996  84.4%     -    0s
     0     0 3896.75996    0  101 25028.0000 3896.75996  84.4%     -    0s
     0     0 3898.14507    0  107 25028.0000 3898.14507  84.4%     -    0s
     0     0 3898.38736    0  116 25028.0000 3898.38736  84.4%     -    0s
     0     0 3935.18137    0  110 25028.0000 3935.18137  84.3%     -    0s
     0     0 3935.18137    0   49 25028.0000 3935.18137  84.3%     -    0s
     0     0 3935.18137    0  109 25028.0000 3935.18137  84.3%     -    0s
     0     0 3947.59727    0   94 25028.0000 3947.59727  84.2%     -    0s
     0     0 3949.66676    0   97 25028.0000 3949.66676  84.2%     -    0s
     0     0 3949.90257    0  103 25028.0000 3949.90257  84.2%     -    0s
     0     0 3949.91922    0  104 25028.0000 3949.91922  84.2%     -    0s
     0     0 3949.91922    0  104 25028.0000 3949.91922  84.2%     -    0s
     0     0 3970.16210    0  136 25028.0000 3970.16210  84.1%     -    0s
     0     0 3977.42068    0  135 25028.0000 3977.42068  84.1%     -    0s
     0     0 3978.35400    0  140 25028.0000 3978.35400  84.1%     -    0s
     0     0 3978.69403    0  141 25028.0000 3978.69403  84.1%     -    0s
     0     0 3978.82352    0  148 25028.0000 3978.82352  84.1%     -    0s
     0     0 3978.87444    0  146 25028.0000 3978.87444  84.1%     -    0s
H    0     0                    25020.000000 3978.87444  84.1%     -    0s
H    0     0                    16652.000000 3978.87444  76.1%     -    0s
     0     0 4561.28159    0  148 16652.0000 4561.28159  72.6%     -    0s
H    0     0                    16620.000000 4561.28159  72.6%     -    0s
H    0     0                    6012.0000000 4561.28159  24.1%     -    0s
     0     0 4750.23723    0  148 6012.00000 4750.23723  21.0%     -    0s
     0     0 4849.51080    0  148 6012.00000 4849.51080  19.3%     -    0s
     0     0 4849.91744    0  139 6012.00000 4849.91744  19.3%     -    0s
     0     0 5044.67084    0  145 6012.00000 5044.67084  16.1%     -    0s
     0     0 5070.33778    0  139 6012.00000 5070.33778  15.7%     -    0s
     0     0 5071.21341    0  142 6012.00000 5071.21341  15.6%     -    0s
     0     0 5926.00181    0  132 6012.00000 5926.00181  1.43%     -    0s
     0     0 5934.14582    0  139 6012.00000 5934.14582  1.29%     -    0s
     0     0 5936.12931    0  144 6012.00000 5936.12931  1.26%     -    0s
     0     0 5936.32722    0  148 6012.00000 5936.32722  1.26%     -    0s
     0     0 5962.59227    0  130 6012.00000 5962.59227  0.82%     -    0s
     0     0 5962.59227    0   57 6012.00000 5962.59227  0.82%     -    0s
     0     0 5962.59227    0   79 6012.00000 5962.59227  0.82%     -    0s
     0     0 5962.59227    0   80 6012.00000 5962.59227  0.82%     -    0s
     0     0 5962.59227    0   82 6012.00000 5962.59227  0.82%     -    0s
     0     0 5963.99583    0  101 6012.00000 5963.99583  0.80%     -    0s
     0     0 5964.00000    0    5 6012.00000 5964.00000  0.80%     -    0s
     0     0 5964.40367    0   94 6012.00000 5964.40367  0.79%     -    0s
H    0     0                    5980.0000000 5964.40367  0.26%     -    0s
     0     0 5966.75739    0  100 5980.00000 5966.75739  0.22%     -    0s
     0     0 5967.05706    0  100 5980.00000 5967.05706  0.22%     -    0s
     0     0 5967.23478    0   96 5980.00000 5967.23478  0.21%     -    0s
     0     0 5967.35300    0   96 5980.00000 5967.35300  0.21%     -    0s
     0     0 5967.35300    0   97 5980.00000 5967.35300  0.21%     -    0s
     0     0 5976.00000    0   31 5980.00000 5976.00000  0.07%     -    0s
     0     0     cutoff    0      5980.00000 5980.00000  0.00%     -    0s

Explored 1 nodes (9258 simplex iterations) in 0.68 seconds (0.87 work units)
Thread count was 8 (of 8 available processors)

Solution count 10: 5980 5996 6012 ... 25108

Optimal solution found (tolerance 1.00e-04)
Best objective 5.980000000000e+03, best bound 5.980000000000e+03, gap 0.0000%

Gurobi 9.5.2 (mac64[arm]) logging started Wed Apr 19 18:55:35 2023

Set parameter LogFile to value "Java/output/iterative_model/scenario_seed_1_nJob_30_machineCount_1/mip_increment_2/log.txt"
Gurobi Optimizer version 9.5.2 build v9.5.2rc0 (mac64[arm])
Thread count: 8 physical cores, 8 logical processors, using up to 8 threads
Optimize a model with 752 rows, 1872 columns and 13261 nonzeros
Model fingerprint: 0xb3be5bc2
Variable types: 0 continuous, 1872 integer (1872 binary)
Coefficient statistics:
  Matrix range     [1e+00, 2e+02]
  Objective range  [1e+02, 9e+04]
  Bounds range     [1e+00, 1e+00]
  RHS range        [1e+00, 1e+00]
Presolve removed 421 rows and 489 columns
Presolve time: 0.02s
Presolved: 331 rows, 1383 columns, 9610 nonzeros
Variable types: 0 continuous, 1383 integer (1383 binary)

Root relaxation: objective 7.411800e+04, 826 iterations, 0.01 seconds (0.01 work units)

    Nodes    |    Current Node    |     Objective Bounds      |     Work
 Expl Unexpl |  Obj  Depth IntInf | Incumbent    BestBd   Gap | It/Node Time

     0     0 74118.0000    0   55          - 74118.0000      -     -    0s
H    0     0                    287352.00000 74118.0000  74.2%     -    0s
H    0     0                    248286.00000 74118.0000  70.1%     -    0s
     0     0 74492.6277    0  123 248286.000 74492.6277  70.0%     -    0s
H    0     0                    205616.00000 74492.6277  63.8%     -    0s
     0     0 74492.6277    0  116 205616.000 74492.6277  63.8%     -    0s
     0     0 74839.0343    0  118 205616.000 74839.0343  63.6%     -    0s
H    0     0                    203610.00000 74839.0343  63.2%     -    0s
H    0     0                    198324.00000 74839.0343  62.3%     -    0s
H    0     0                    111360.00000 74857.9428  32.8%     -    0s
H    0     0                    110292.00000 74857.9428  32.1%     -    0s
H    0     0                    99314.000000 74857.9428  24.6%     -    0s
     0     0 74857.9428    0  118 99314.0000 74857.9428  24.6%     -    0s
H    0     0                    98072.000000 75336.4617  23.2%     -    0s
     0     0 75336.4617    0  127 98072.0000 75336.4617  23.2%     -    0s
     0     0 75407.9888    0  144 98072.0000 75407.9888  23.1%     -    0s
     0     0 75408.3196    0  141 98072.0000 75408.3196  23.1%     -    0s
     0     0 76147.7182    0  135 98072.0000 76147.7182  22.4%     -    0s
     0     0 76258.1172    0  134 98072.0000 76258.1172  22.2%     -    0s
     0     0 76280.0192    0  147 98072.0000 76280.0192  22.2%     -    0s
     0     0 76282.1403    0  149 98072.0000 76282.1403  22.2%     -    0s
     0     0 76282.9818    0  149 98072.0000 76282.9818  22.2%     -    0s
     0     0 76573.0342    0  164 98072.0000 76573.0342  21.9%     -    0s
H    0     0                    96910.000000 76573.0342  21.0%     -    0s
     0     0 76734.8108    0  162 96910.0000 76734.8108  20.8%     -    0s
     0     0 76736.8771    0  171 96910.0000 76736.8771  20.8%     -    0s
     0     0 76742.1401    0  172 96910.0000 76742.1401  20.8%     -    0s
     0     0 76742.7605    0  172 96910.0000 76742.7605  20.8%     -    0s
     0     0 77169.4897    0  172 96910.0000 77169.4897  20.4%     -    0s
H    0     0                    95828.000000 77169.4897  19.5%     -    0s
     0     0 77292.8842    0  176 95828.0000 77292.8842  19.3%     -    0s
     0     0 77580.9036    0  183 95828.0000 77580.9036  19.0%     -    0s
     0     0 77633.5723    0  176 95828.0000 77633.5723  19.0%     -    0s
     0     0 77637.2812    0  178 95828.0000 77637.2812  19.0%     -    0s
     0     0 77637.2812    0  179 95828.0000 77637.2812  19.0%     -    0s
     0     0 78445.1047    0  179 95828.0000 78445.1047  18.1%     -    0s
     0     0 78754.3929    0  171 95828.0000 78754.3929  17.8%     -    0s
     0     0 78776.3280    0  172 95828.0000 78776.3280  17.8%     -    0s
     0     0 78783.6713    0  177 95828.0000 78783.6713  17.8%     -    0s
     0     0 78786.8635    0  183 95828.0000 78786.8635  17.8%     -    0s
     0     0 79311.4821    0  169 95828.0000 79311.4821  17.2%     -    0s
     0     0 79373.7777    0  168 95828.0000 79373.7777  17.2%     -    0s
     0     0 79386.7790    0  164 95828.0000 79386.7790  17.2%     -    0s
     0     0 79393.5247    0  181 95828.0000 79393.5247  17.1%     -    0s
     0     0 79398.7680    0  165 95828.0000 79398.7680  17.1%     -    0s
     0     0 79400.6670    0  178 95828.0000 79400.6670  17.1%     -    0s
     0     0 79839.7848    0  177 95828.0000 79839.7848  16.7%     -    0s
H    0     0                    88592.000000 79839.7848  9.88%     -    0s
     0     0 79925.1813    0  188 88592.0000 79925.1813  9.78%     -    0s
     0     0 79949.8655    0  199 88592.0000 79949.8655  9.75%     -    0s
     0     0 79951.3889    0  194 88592.0000 79951.3889  9.75%     -    0s
     0     0 80084.8415    0  202 88592.0000 80084.8415  9.60%     -    0s
     0     0 80098.3456    0  206 88592.0000 80098.3456  9.59%     -    0s
     0     0 80102.6345    0  209 88592.0000 80102.6345  9.58%     -    0s
     0     0 80435.7474    0  197 88592.0000 80435.7474  9.21%     -    0s
H    0     0                    82782.000000 80435.7474  2.83%     -    0s
     0     0 80473.5799    0  203 82782.0000 80473.5799  2.79%     -    0s
     0     0 80475.8371    0  207 82782.0000 80475.8371  2.79%     -    0s
     0     0 80597.8141    0  203 82782.0000 80597.8141  2.64%     -    0s
     0     0 80597.8141    0   73 82782.0000 80597.8141  2.64%     -    0s
     0     0 80597.8141    0  134 82782.0000 80597.8141  2.64%     -    0s
     0     0 80597.8141    0  166 82782.0000 80597.8141  2.64%     -    0s
     0     0 80597.8141    0  138 82782.0000 80597.8141  2.64%     -    0s
     0     0 80597.8141    0  178 82782.0000 80597.8141  2.64%     -    0s
     0     0 80678.0508    0  180 82782.0000 80678.0508  2.54%     -    0s
     0     0 80788.2519    0  186 82782.0000 80788.2519  2.41%     -    0s
     0     0 80807.7731    0  186 82782.0000 80807.7731  2.38%     -    0s
     0     0 80812.6597    0  186 82782.0000 80812.6597  2.38%     -    0s
     0     0 80812.6597    0  187 82782.0000 80812.6597  2.38%     -    0s
     0     0 80944.2677    0  188 82782.0000 80944.2677  2.22%     -    0s
     0     0 80979.1307    0  186 82782.0000 80979.1307  2.18%     -    0s
     0     0 80990.6243    0  188 82782.0000 80990.6243  2.16%     -    0s
     0     0 80990.6243    0  190 82782.0000 80990.6243  2.16%     -    0s
     0     0 82237.7572    0  195 82782.0000 82237.7572  0.66%     -    0s
     0     0 82294.5882    0  190 82782.0000 82294.5882  0.59%     -    0s
     0     2 82294.5882    0  184 82782.0000 82294.5882  0.59%     -    0s
*   19     2               7    82714.000000 82714.0000  0.00%  60.3    0s

Cutting planes:
  Gomory: 2
  Cover: 3
  Clique: 21
  MIR: 56
  StrongCG: 21
  GUB cover: 47
  Zero half: 10
  RLT: 2

Explored 21 nodes (11537 simplex iterations) in 0.91 seconds (1.16 work units)
Thread count was 8 (of 8 available processors)

Solution count 10: 82714 82782 88592 ... 198324

Optimal solution found (tolerance 1.00e-04)
Best objective 8.271400000000e+04, best bound 8.271400000000e+04, gap 0.0000%

Gurobi 9.5.2 (mac64[arm]) logging started Wed Apr 19 18:55:36 2023

Set parameter LogFile to value "Java/output/iterative_model/scenario_seed_1_nJob_30_machineCount_1/mip_increment_2/log.txt"
Gurobi Optimizer version 9.5.2 build v9.5.2rc0 (mac64[arm])
Thread count: 8 physical cores, 8 logical processors, using up to 8 threads
Optimize a model with 1542 rows, 21483 columns and 232814 nonzeros
Model fingerprint: 0x18274121
Variable types: 0 continuous, 21483 integer (21483 binary)
Coefficient statistics:
  Matrix range     [1e+00, 2e+02]
  Objective range  [5e+00, 5e+06]
  Bounds range     [1e+00, 1e+00]
  RHS range        [1e+00, 1e+00]

Warning: Completing partial solution with 21390 unfixed non-continuous variables out of 21483
User MIP start produced solution with objective 49986 (0.01s)
Loaded user MIP start with objective 49986

Presolve removed 49 rows and 2078 columns
Presolve time: 0.25s
Presolved: 1493 rows, 19405 columns, 207067 nonzeros
Variable types: 0 continuous, 19405 integer (19387 binary)

Root relaxation: objective 1.099691e+04, 14319 iterations, 1.06 seconds (2.40 work units)

    Nodes    |    Current Node    |     Objective Bounds      |     Work
 Expl Unexpl |  Obj  Depth IntInf | Incumbent    BestBd   Gap | It/Node Time

     0     0 10996.9065    0  252 49986.0000 10996.9065  78.0%     -    1s
H    0     0                    49882.000000 10996.9065  78.0%     -    2s
     0     0 11051.4222    0  413 49882.0000 11051.4222  77.8%     -    2s
H    0     0                    49852.000000 11051.4222  77.8%     -    2s
     0     0 11070.7195    0  403 49852.0000 11070.7195  77.8%     -    2s
     0     0 11070.7318    0  405 49852.0000 11070.7318  77.8%     -    3s
     0     0 11070.7318    0  403 49852.0000 11070.7318  77.8%     -    3s
H    0     0                    49820.000000 11125.1517  77.7%     -    3s
     0     0 11125.1517    0  327 49820.0000 11125.1517  77.7%     -    3s
H    0     0                    49812.000000 11125.1517  77.7%     -    4s
     0     0 11125.6514    0  335 49812.0000 11125.6514  77.7%     -    4s
     0     0 11125.6514    0  329 49812.0000 11125.6514  77.7%     -    4s
     0     0 11164.9536    0  499 49812.0000 11164.9536  77.6%     -    4s
     0     0 11167.3356    0  505 49812.0000 11167.3356  77.6%     -    5s
     0     0 11167.3423    0  507 49812.0000 11167.3423  77.6%     -    5s
     0     0 11222.7734    0  526 49812.0000 11222.7734  77.5%     -    6s
     0     0 11222.7734    0  279 49812.0000 11222.7734  77.5%     -    7s
H    0     0                    49796.000000 11222.7734  77.5%     -    8s
     0     0 11222.7734    0  464 49796.0000 11222.7734  77.5%     -    8s
     0     0 11239.0232    0  489 49796.0000 11239.0232  77.4%     -    9s
     0     0 11240.6946    0  525 49796.0000 11240.6946  77.4%     -    9s
     0     0 11241.6249    0  518 49796.0000 11241.6249  77.4%     -    9s
     0     0 11241.6547    0  518 49796.0000 11241.6547  77.4%     -    9s
     0     0 11322.3353    0  551 49796.0000 11322.3353  77.3%     -   10s
H    0     0                    49752.000000 11322.3353  77.2%     -   10s
     0     0 11342.5962    0  553 49752.0000 11342.5962  77.2%     -   11s
     0     0 11346.6995    0  536 49752.0000 11346.6995  77.2%     -   11s
     0     0 11348.3144    0  557 49752.0000 11348.3144  77.2%     -   11s
     0     0 11348.7369    0  561 49752.0000 11348.7369  77.2%     -   11s
     0     0 11348.8480    0  566 49752.0000 11348.8480  77.2%     -   11s
     0     0 11651.5701    0  596 49752.0000 11651.5701  76.6%     -   13s
H    0     0                    49713.000000 11651.5701  76.6%     -   13s
     0     0 11713.0966    0  639 49713.0000 11713.0966  76.4%     -   13s
     0     0 11719.6000    0  662 49713.0000 11719.6000  76.4%     -   14s
     0     0 11719.6541    0  670 49713.0000 11719.6541  76.4%     -   14s
     0     0 12104.4881    0  690 49713.0000 12104.4881  75.7%     -   16s
     0     0 12123.2391    0  737 49713.0000 12123.2391  75.6%     -   17s
     0     0 12126.2226    0  739 49713.0000 12126.2226  75.6%     -   17s
     0     0 12126.6092    0  739 49713.0000 12126.6092  75.6%     -   17s
     0     0 12492.0062    0  734 49713.0000 12492.0062  74.9%     -   18s
H    0     0                    49681.000000 12492.0062  74.9%     -   18s
     0     0 12523.9097    0  751 49681.0000 12523.9097  74.8%     -   19s
     0     0 12531.8419    0  778 49681.0000 12531.8419  74.8%     -   19s
     0     0 12533.1634    0  767 49681.0000 12533.1634  74.8%     -   19s
     0     0 12533.5558    0  778 49681.0000 12533.5558  74.8%     -   19s
     0     0 12973.3526    0  713 49681.0000 12973.3526  73.9%     -   20s
     0     0 12999.9801    0  735 49681.0000 12999.9801  73.8%     -   21s
     0     0 13004.4872    0  758 49681.0000 13004.4872  73.8%     -   21s
     0     0 13004.9503    0  761 49681.0000 13004.9503  73.8%     -   21s
     0     0 13330.3710    0  739 49681.0000 13330.3710  73.2%     -   22s
     0     0 13370.0521    0  747 49681.0000 13370.0521  73.1%     -   23s
     0     0 13373.1166    0  770 49681.0000 13373.1166  73.1%     -   23s
     0     0 13373.5340    0  750 49681.0000 13373.5340  73.1%     -   23s
     0     0 13730.3618    0  785 49681.0000 13730.3618  72.4%     -   24s
     0     0 13760.1419    0  776 49681.0000 13760.1419  72.3%     -   24s
     0     0 13764.1800    0  796 49681.0000 13764.1800  72.3%     -   25s
     0     0 13766.0039    0  807 49681.0000 13766.0039  72.3%     -   25s
     0     0 14254.7239    0  781 49681.0000 14254.7239  71.3%     -   26s
     0     0 14271.6672    0  827 49681.0000 14271.6672  71.3%     -   27s
     0     0 14275.2298    0  822 49681.0000 14275.2298  71.3%     -   27s
     0     0 14277.0029    0  854 49681.0000 14277.0029  71.3%     -   27s
     0     0 14752.4268    0  838 49681.0000 14752.4268  70.3%     -   29s
     0     0 14769.7090    0  855 49681.0000 14769.7090  70.3%     -   30s
     0     0 14773.7966    0  855 49681.0000 14773.7966  70.3%     -   30s
     0     0 14775.4735    0  877 49681.0000 14775.4735  70.3%     -   31s
     0     0 15322.4748    0  874 49681.0000 15322.4748  69.2%     -   32s
     0     0 15342.3932    0  870 49681.0000 15342.3932  69.1%     -   33s
     0     0 15350.5596    0  885 49681.0000 15350.5596  69.1%     -   34s
     0     0 15351.2350    0  899 49681.0000 15351.2350  69.1%     -   34s
     0     0 15888.3793    0  906 49681.0000 15888.3793  68.0%     -   35s
     0     0 15903.3186    0  928 49681.0000 15903.3186  68.0%     -   36s
     0     0 15907.4623    0  939 49681.0000 15907.4623  68.0%     -   36s
     0     0 16225.2819    0  870 49681.0000 16225.2819  67.3%     -   37s
     0     0 16289.5999    0  869 49681.0000 16289.5999  67.2%     -   39s
     0     0 16294.0693    0  892 49681.0000 16294.0693  67.2%     -   39s
     0     0 16917.5587    0  856 49681.0000 16917.5587  65.9%     -   41s
H    0     0                    49675.000000 16917.5587  65.9%     -   41s
     0     0 16938.4121    0  884 49675.0000 16938.4121  65.9%     -   42s
     0     0 16954.5713    0  900 49675.0000 16954.5713  65.9%     -   43s
     0     0 16962.4159    0  915 49675.0000 16962.4159  65.9%     -   43s
     0     0 16964.0296    0  928 49675.0000 16964.0296  65.8%     -   43s
     0     0 17418.3162    0  891 49675.0000 17418.3162  64.9%     -   45s
H    0     0                    49658.000000 17418.3162  64.9%     -   47s
     0     0 17463.9268    0  893 49658.0000 17463.9268  64.8%     -   47s
     0     0 17478.5555    0  908 49658.0000 17478.5555  64.8%     -   47s
     0     0 17480.2045    0  908 49658.0000 17480.2045  64.8%     -   48s
     0     0 18125.5539    0  842 49658.0000 18125.5539  63.5%     -   49s
     0     0 18147.3383    0  905 49658.0000 18147.3383  63.5%     -   50s
     0     0 18152.8646    0  917 49658.0000 18152.8646  63.4%     -   51s
     0     0 18811.4881    0  862 49658.0000 18811.4881  62.1%     -   52s
     0     0 18908.1009    0  891 49658.0000 18908.1009  61.9%     -   53s
     0     0 18919.0477    0  905 49658.0000 18919.0477  61.9%     -   54s
     0     0 18939.2084    0  929 49658.0000 18939.2084  61.9%     -   54s
     0     0 18946.7753    0  966 49658.0000 18946.7753  61.8%     -   55s
     0     0 18960.7574    0  950 49658.0000 18960.7574  61.8%     -   56s
     0     0 18963.3849    0  987 49658.0000 18963.3849  61.8%     -   56s
     0     0 19681.8792    0  881 49658.0000 19681.8792  60.4%     -   58s
     0     0 19692.2588    0  892 49658.0000 19692.2588  60.3%     -   59s
     0     0 19696.4195    0  927 49658.0000 19696.4195  60.3%     -   60s
     0     0 20428.4082    0  945 49658.0000 20428.4082  58.9%     -   62s
     0     0 20470.6195    0  952 49658.0000 20470.6195  58.8%     -   64s
     0     0 20480.1679    0  961 49658.0000 20480.1679  58.8%     -   65s
     0     0 20917.2517    0  918 49658.0000 20917.2517  57.9%     -   67s
     0     0 20959.6317    0  930 49658.0000 20959.6317  57.8%     -   69s
     0     0 20971.8746    0  954 49658.0000 20971.8746  57.8%     -   69s
     0     0 20972.9828    0  956 49658.0000 20972.9828  57.8%     -   70s
     0     0 21689.9183    0  901 49658.0000 21689.9183  56.3%     -   71s
     0     0 21713.6677    0  950 49658.0000 21713.6677  56.3%     -   72s
     0     0 21718.3702    0  948 49658.0000 21718.3702  56.3%     -   73s
     0     0 22457.2598    0  935 49658.0000 22457.2598  54.8%     -   74s
     0     0 22470.9025    0  932 49658.0000 22470.9025  54.7%     -   75s
     0     0 22472.1903    0  933 49658.0000 22472.1903  54.7%     -   75s
     0     0 23358.6075    0  890 49658.0000 23358.6075  53.0%     -   77s
     0     0 23370.3356    0  898 49658.0000 23370.3356  52.9%     -   78s
     0     0 23867.8251    0  897 49658.0000 23867.8251  51.9%     -   79s
     0     0 23890.7955    0  908 49658.0000 23890.7955  51.9%     -   80s
     0     0 23893.1294    0  950 49658.0000 23893.1294  51.9%     -   81s
     0     0 24746.6740    0  919 49658.0000 24746.6740  50.2%     -   83s
H    0     0                    49656.000000 24746.6740  50.2%     -   84s
     0     0 24769.3666    0  925 49656.0000 24769.3666  50.1%     -   85s
     0     0 24772.7197    0  941 49656.0000 24772.7197  50.1%     -   85s
     0     0 25139.5915    0  943 49656.0000 25139.5915  49.4%     -   87s
     0     0 25177.2772    0  939 49656.0000 25177.2772  49.3%     -   88s
     0     0 25186.2427    0  940 49656.0000 25186.2427  49.3%     -   89s
     0     0 25887.2159    0  917 49656.0000 25887.2159  47.9%     -   91s
     0     0 25906.0157    0  920 49656.0000 25906.0157  47.8%     -   92s
     0     0 25917.8775    0  937 49656.0000 25917.8775  47.8%     -   93s
     0     0 26768.8576    0  900 49656.0000 26768.8576  46.1%     -   94s
     0     0 26776.8486    0  932 49656.0000 26776.8486  46.1%     -   94s
     0     0 27899.3431    0  900 49656.0000 27899.3431  43.8%     -   96s
     0     0 27966.7336    0  907 49656.0000 27966.7336  43.7%     -   98s
     0     0 27967.9081    0  927 49656.0000 27967.9081  43.7%     -   98s
     0     0 28827.5551    0  861 49656.0000 28827.5551  41.9%     -  100s
     0     0 28912.6873    0  880 49656.0000 28912.6873  41.8%     -  101s
     0     0 28966.2742    0  883 49656.0000 28966.2742  41.7%     -  102s
     0     0 28973.1825    0  875 49656.0000 28973.1825  41.7%     -  102s
     0     0 29589.4717    0  898 49656.0000 29589.4717  40.4%     -  104s
     0     0 29711.8073    0  906 49656.0000 29711.8073  40.2%     -  106s
     0     0 29719.4188    0  936 49656.0000 29719.4188  40.1%     -  107s
     0     0 30325.1022    0  900 49656.0000 30325.1022  38.9%     -  108s
     0     0 30475.4933    0  933 49656.0000 30475.4933  38.6%     -  112s
     0     0 30516.3350    0  921 49656.0000 30516.3350  38.5%     -  114s
     0     0 30546.2978    0  929 49656.0000 30546.2978  38.5%     -  116s
     0     0 30568.3569    0  971 49656.0000 30568.3569  38.4%     -  118s
     0     0 30577.7260    0 1020 49656.0000 30577.7260  38.4%     -  119s
     0     0 31163.4175    0  995 49656.0000 31163.4175  37.2%     -  123s
H    0     0                    49654.000000 31163.4175  37.2%     -  124s
     0     0 31218.8620    0 1023 49654.0000 31218.8620  37.1%     -  126s
     0     0 31262.2308    0 1017 49654.0000 31262.2308  37.0%     -  128s
     0     0 31292.6407    0 1032 49654.0000 31292.6407  37.0%     -  129s
     0     0 31295.2062    0 1022 49654.0000 31295.2062  37.0%     -  130s
     0     0 31877.3718    0 1063 49654.0000 31877.3718  35.8%     -  133s
     0     0 31889.4227    0 1073 49654.0000 31889.4227  35.8%     -  134s
     0     0 32681.0414    0  952 49654.0000 32681.0414  34.2%     -  136s
     0     0 32714.0735    0  951 49654.0000 32714.0735  34.1%     -  137s
     0     0 32715.7234    0  932 49654.0000 32715.7234  34.1%     -  138s
     0     0 33168.2983    0  940 49654.0000 33168.2983  33.2%     -  140s
     0     0 33170.9347    0  954 49654.0000 33170.9347  33.2%     -  140s
     0     0 33787.9218    0  920 49654.0000 33787.9218  32.0%     -  141s
     0     0 33798.4662    0  964 49654.0000 33798.4662  31.9%     -  143s
     0     0 34264.5216    0  918 49654.0000 34264.5216  31.0%     -  144s
     0     0 34306.9460    0  944 49654.0000 34306.9460  30.9%     -  144s
     0     0 34319.9675    0  950 49654.0000 34319.9675  30.9%     -  145s
     0     0 34925.9429    0  914 49654.0000 34925.9429  29.7%     -  146s
     0     0 35064.9724    0  935 49654.0000 35064.9724  29.4%     -  147s
     0     0 35241.7472    0  962 49654.0000 35241.7472  29.0%     -  150s
     0     0 35260.0547    0  936 49654.0000 35260.0547  29.0%     -  151s
     0     0 35729.7748    0  925 49654.0000 35729.7748  28.0%     -  152s
     0     0 36030.1104    0  956 49654.0000 36030.1104  27.4%     -  153s
     0     0 36044.6218    0  970 49654.0000 36044.6218  27.4%     -  153s
     0     0 36519.6170    0  954 49654.0000 36519.6170  26.5%     -  155s
     0     0 36566.4380    0  984 49654.0000 36566.4380  26.4%     -  157s
     0     0 36584.1818    0  985 49654.0000 36584.1818  26.3%     -  159s
     0     0 37018.4289    0  925 49654.0000 37018.4289  25.4%     -  160s
     0     0 37063.1052    0  933 49654.0000 37063.1052  25.4%     -  160s
     0     0 37134.7930    0  963 49654.0000 37134.7930  25.2%     -  162s
     0     0 37135.9876    0  989 49654.0000 37135.9876  25.2%     -  162s
     0     0 37544.0616    0  963 49654.0000 37544.0616  24.4%     -  163s
     0     0 37602.8176    0  973 49654.0000 37602.8176  24.3%     -  164s
     0     0 37604.2618    0  991 49654.0000 37604.2618  24.3%     -  165s
     0     0 37842.4624    0  969 49654.0000 37842.4624  23.8%     -  166s
     0     0 37842.4624    0  949 49654.0000 37842.4624  23.8%     -  167s
     0     2 37848.9922    0  941 49654.0000 37848.9922  23.8%     -  170s
     3     8 38454.8955    2  876 49654.0000 37861.3764  23.7%  6785  179s
     7    16 38781.5058    3  941 49654.0000 38031.0764  23.4%  8645  183s
    15    24 40231.8289    4  898 49654.0000 38680.9803  22.1%  8364  191s
    23    30 39385.9932    4  973 49654.0000 38680.9803  22.1%  9961  198s
    31    37 42600.1887    5  913 49654.0000 39360.7788  20.7% 10282  207s
    39    43 39565.2369    5  987 49654.0000 39360.7788  20.7% 10616  214s
    47    51 40250.6114    6  930 49654.0000 39565.2369  20.3% 10634  220s
    57    58 39976.0450    6  995 49654.0000 39750.1529  19.9% 10685  229s
    68    65 47640.9223    7  905 49654.0000 39963.3879  19.5% 10212  235s
    89    81 43362.4760    8  842 49654.0000 40250.6114  18.9%  9124  243s
   103    88 41955.0036    8  955 49654.0000 40250.6114  18.9%  8672  248s
   114    90 41967.2590    9  879 49654.0000 40250.6114  18.9%  8481  253s
   129    99 42934.4091   10  926 49654.0000 40250.6114  18.9%  8185  260s
   144   107 46275.1038   10  889 49654.0000 40250.6114  18.9%  8053  265s
   156   114     cutoff   11      49654.0000 40250.6114  18.9%  7805  274s
   170   116 infeasible   12      49654.0000 40250.6114  18.9%  7811  278s
   195   120     cutoff   13      49654.0000 40250.6114  18.9%  7274  283s
   215   121 44160.9103    8  929 49654.0000 40250.6114  18.9%  7127  289s
   228   123 44336.7141    9  940 49654.0000 40250.6114  18.9%  7308  298s
   237   126 infeasible   10      49654.0000 40250.6114  18.9%  7474  314s
   252   136 44752.0431   11  939 49654.0000 40250.6114  18.9%  7551  329s
   268   150 45912.9139   13  951 49654.0000 40250.6114  18.9%  7773  339s
   290   168     cutoff   14      49654.0000 40250.6114  18.9%  7580  350s
   317   181     cutoff   14      49654.0000 40250.6114  18.9%  7497  362s
   348   190 47391.7021   13  855 49654.0000 40250.6114  18.9%  7186  378s
   379   190 47940.3716   14  830 49654.0000 40807.0651  17.8%  6960  389s
   413   197 44803.4352    8  980 49654.0000 40807.0651  17.8%  6714  401s
   445   198 infeasible    9      49654.0000 40807.0651  17.8%  6592  420s
   465   195     cutoff   11      49654.0000 40807.0651  17.8%  6737  430s
   505   195     cutoff   11      49654.0000 41457.6667  16.5%  6571  439s
   521   208 45725.9394    8  915 49654.0000 41457.6667  16.5%  6690  449s
   555   219 infeasible   10      49654.0000 41457.6667  16.5%  6613  460s
   602   230 48321.5262   11  933 49654.0000 41915.3377  15.6%  6374  480s
   639   237 43102.5256    9 1014 49654.0000 42111.8161  15.2%  6313  497s
   692   256     cutoff   11      49654.0000 42111.8161  15.2%  6158  507s
   741   262 infeasible   14      49654.0000 42111.8161  15.2%  5965  520s
   795   258 47431.4664   20  914 49654.0000 42111.8161  15.2%  5849  533s
   839   258 infeasible   24      49654.0000 42375.8814  14.7%  5818  549s
   889   250 43050.5161    8 1076 49654.0000 42375.8814  14.7%  5769  562s
   924   291 43590.7647   10  899 49654.0000 43050.5845  13.3%  5769  576s
   983   292 46865.3548    9  947 49654.0000 43050.5845  13.3%  5674  591s
  1055   278 48751.8758   18  933 49654.0000 43050.5845  13.3%  5541  597s

Cutting planes:
  Gomory: 2
  Cover: 32
  Clique: 442
  MIR: 646
  StrongCG: 389
  GUB cover: 689
  Inf proof: 2
  Zero half: 14
  RLT: 4

Explored 1083 nodes (6511239 simplex iterations) in 597.01 seconds (1896.54 work units)
Thread count was 8 (of 8 available processors)

Solution count 10: 49654 49656 49658 ... 49820

Time limit reached
Best objective 4.965400000000e+04, best bound 4.305100000000e+04, gap 13.2980%
